c Lingeling SAT Solver
c 
c Version ala b02aa1a04343558c4252b5f4a723be021964f652
c 
c Copyright (C) 2010-2012 Armin Biere JKU Linz Austria.
c All rights reserved.
c 
c released Sat Oct 13 14:05:26 CEST 2012
c compiled Sat Feb 16 02:48:12 EST 2013
c 
c gcc (Debian 4.4.5-8) 4.4.5
c -Wall -O3 -DNLGLOG -DNDEBUG -DNCHKSOL -DNLGLPICOSAT 
c Linux greencar2 2.6.32-5-amd64 x86_64
c 
c reading input file p71.cnf
c no embedded options
c found 'p cnf 224518 693072' header
c read 224518 variables, 693072 clauses, 1441304 literals in 0.0 seconds
c
c feature vars 224518
c feature lits.total 1441304
c feature lits.pos 768511
c feature lits.neg 672793
c feature clauses.total 693072
c feature clauses.unit 84148
c feature clauses.bin 488616
c feature clauses.trn 118908
c feature clauses.lrg 1400
c feature cog.val.min 1
c feature cog.val.avg 100019
c feature cog.val.max 215442
c feature cog.var.min 1
c feature cog.var.avg 112260
c feature cog.var.max 224517
c
c
c --abstime=0
c --acts=2
c --actavgmax=120
c --actstdmin=20
c --actstdmax=80
c --agile=23
c --bias=2
c --block=1
c --blkrtc=0
c --blkclslim=2000
c --blkocclim=2000
c --blkmaxeff=2147483647
c --blkmineff=10000000
c --blkreleff=20
c --card=0
c --cce=3
c --ccemaxeff=100000000
c --ccemineff=5000000
c --ccereleff=3
c --check=0
c --cgrclsr=1
c --cgrmaxority=20
c --cgrmaxeff=8000000
c --cgrmineff=200000
c --cgreleff=1
c --cgrexteq=1
c --cgrextand=1
c --cgrextunits=1
c --cgrextite=1
c --cgrextxor=1
c --cliff=1
c --cliffreleff=8
c --cliffmineff=10000000
c --cliffmaxeff=100000000
c --compact=0
c --decompose=1
c --defragint=10000000
c --defragfree=50
c --elim=1
c --elmrtc=0
c --elmblk=1
c --elmclslim=1000
c --elmocclim=1000
c --elmaxeff=100000000
c --elmineff=5000000
c --elmreleff=10
c --sleeponabort=0
c --exitonabort=0
c --flipping=1
c --flipint=2
c --flipdur=50
c --fliptop=1
c --force=0
c --gauss=1
c --gaussextrall=1
c --gaussmaxor=20
c --gaussexptrn=1
c --gaussmaxeff=50000000
c --gaussmineff=2000000
c --gaussreleff=2
c --gluescale=2
c --gluekeep=0
c --inprocessing=1
c --cintinc=10000
c --irrlim=20
c --lift=1
c --lftmaxeff=20000000
c --lftmineff=500000
c --lftreleff=6
c --lhbr=1
c --lkhd=1
c --clim=-1
c --mocint=1000
c --move=2
c --log=-1
c --otfs=1
c --phase=0
c --phaseneginit=0
c --plain=0
c --probe=1
c --prbasicmaxeff=100000000
c --prbasicmineff=1000000
c --prbasicreleff=10
c --prbasic=1
c --prbasicroundlim=9
c --queuemergelim=10000
c --queuefactor=833
c --queueinc=20
c --rmincpen=4
c --seed=0
c --smallirr=90
c --smallve=1
c --smallvevars=12
c --randec=1
c --randecint=1000
c --redfixed=0
c --redlbound=0
c --redlexpfac=10
c --redldoutfac=0
c --redloutinc=10000
c --redlinit=1000
c --redlinc=1000
c --redinoutinc=100
c --redlmininc=10
c --redlmaxinc=200
c --redlminrel=10
c --redlmaxrel=300
c --redlminabs=500
c --redlmaxabs=1000000
c --reduce=1
c --restart=2
c --restartint=5
c --rstinoutinc=110
c --simplify=1
c --simpdelay=100
c --simpen=4
c --sizepen=1000000
c --sizemaxpen=3
c --sortlits=0
c --syncint=111111
c --termint=122222
c --ternres=1
c --ternresrtc=0
c --trnrmineff=4000000
c --trnrmaxeff=40000000
c --trnreleff=10
c --transred=1
c --trdmineff=100000
c --trdmaxeff=2000000
c --trdreleff=10
c --unhide=1
c --unhdextstamp=1
c --unhdhbr=0
c --unhdmaxeff=20000000
c --unhdmineff=1000000
c --unhdreleff=4
c --unhdlnpr=3
c --unhdroundlim=5
c --verbose=1
c --witness=1
c [limits] no conflict limit
c [limits] simplification delayed by 100 to 100 conflicts
c 
c  seconds         irredundant          redundant clauses agility   height
c          variables clauses conflicts large binary ternary    glue         MB
c 
c *    0.0  122508   511056         0       0      0     0  64  0.0   0.0   42
c [cut-width] 170199, max 267157, min4 108460 at 75%, min10 35345 at 89%
c [decision-order] bias 1, old 1
c [queue-schedule-all-variables]
c s    0.0  122508   511056         0       0      0     0  64  0.0   0.0   42
c [simplification-1] limit hit at 100 conflicts
c [simplification-1] simplification penalty of 4
c [ternres-1] limit 4000000 with penalty 0 = 0 + 0
c [ternres-1] all 122508 free variables schedulable
c [ternres-1] 1 ternary resolvents (0 bin, 1 trn)
c [ternres-1] 8006 variables remain 7% (114502 retained)
c T    0.1  122508   511056       100      99      0     2  57  5.9 242.4   45
c [gauss-1] limit 2000000 penalty 0 = 0 + 0
c [gauss-1] extracted 168335 xors of average arity 2.0
c [gauss-1] connected 336672 occurrences of 113153 variables (average 3.0)
c [gauss-1] limit 2000000 penalty 0 = 0 + 0
c [gauss-1] exported 0 unary, 0 binary and 0 ternary equations
c G    0.7  122508   488098       100      99      0     2  57  5.9 242.4   27
c d    0.8   56092   252558       100      99      0     2  57  5.9 242.4   21
c [basicprobe-1] limit 1000000 penalty 0 = 0 + 0
c [basicprobe-1-0] 4506 probes remain 8% after last round
c [basicprobe-1-0] 2 units = 2 failed (100%) + 0 lifted (0%)
c [basicprobe-1-0] removed 2 variables, found 8846 hbrs
c p    0.9   56090   252558       100      99   8844     2  57  5.9 242.4   25
c [cgrclsr-1] limit 200000 penalty 0 = 0 + 0
c [cgrclsr-1] all 56090 free variables schedulable
c [cgrclsr-1] fully completed congruence closure
c [lift-1] limit 500000 with penalty 0 = 0 + 0
c [lift-1] using 56090 probes 100%
c [lift-1] 56054 variables remain 100% (36 retained)
c [cliff-1] limit of 10000000 steps penalty 0 = 0 + 0
c [cliff-1] failed 1, lifted 0
c K    1.5   56089   252548       100      99  20395     2  57  5.9 242.4   25
c [unhide-1] limit 1000000 with penalty 0 = 0 + 0
c [unhide-1-1] 0 units, 2 failed, 21733 tauts, 0 hbrs, 124 literals
c u    1.6   56086   230811       100      99  20394     2  57  5.9 242.4   25
c [transred-1] limit 100000 with penalty 0 = 0 + 0
c t    1.6   56086   230809       100      99  20388     2  57  5.9 242.4   25
c [block-1] scheduling all variables this time
c [block-1] scheduled 56086 variables 100%
c [block-1] limit of 10000000 steps penalty 0 = 0 + 0
c [block-1] fully completed blocked clause elimination
c [block-1] transition to [ all 0 rem 0 ] state
c [block-1] eliminated 4800 blocked clauses
c k    1.8   56086   225995       100      99  20388  4802  57  5.9 242.4   21
c [cce-1] scheduling all variables this time
c [cce-1] limit of 10000000 steps penalty 0 = 0 + 0
c [cce-1] incomplete covered clause elimination 50117 not tried 89%
c [cce-1] transition to [ all 1 rem 1 ] state
c [cce-1] eliminated 94 covered clauses
c E    2.2   56086   225901       100      99  26981  4802  57  5.9 242.4   21
c [elim-1] scheduling all variables this time
c [elim-1] scheduled 56086 variables 100%
c [elim-1] limit of 5000000 steps penalty 0 = 0 + 0
c [elim-1] incomplete variable elimination 41045 not tried 73%
c [elim-1] transition to [ all 1 rem 1 ] state
c [elim-1] eliminated 6639 = 12% variables out of 56086
c e    3.2   49447   221795       100      62  10450   646  57  5.9 242.4   21
c [phase-1] phase bias: 1417 positive 13%, 9344 negative 87%
c [simplification-1] removed 73061 variables 59%
c [simplification-1] limit increments divided by 30
c [simplification-1] arithmetic increase of conflict limit interval by 333
c [simplification-1] new irredundant limit 2245556
c [simplification-1] new conflict limit 433
c [simplification-1] simplification penalty reduced to 3
c R    3.3   49447   221795       161     122  10450   647  11  6.5 306.8   25
c R    3.4   49447   221795       406     331  10458   675   5  5.6 207.1   25
c [simplification-2] limit hit at 433 conflicts
c [simplification-2] simplification penalty of 3
c [ternres-2] limit 4000000 with penalty 0 = 0 + 0
c [ternres-2] 3260 schedulable variables 7%
c [ternres-2] 3 ternary resolvents (0 bin, 3 trn)
c [ternres-2] fully completed ternary resolution
c T    3.4   49447   221795       433     349  10460   683   6  5.5 193.1   25
c [gauss-2] limit 1000000 penalty 1 = 1 + 0
c [gauss-2] extracted 528 xors of average arity 3.0
c [gauss-2] connected 1584 occurrences of 1311 variables (average 1.2)
c [gauss-2] limit 1000000 penalty 1 = 1 + 0
c [gauss-2] fully completed
c [gauss-2] exported 0 unary, 0 binary and 0 ternary equations
c G    3.5   49447   221795       433     349  10460   683   6  5.5 193.1   21
c [basicprobe-2] limit 1000000 penalty 0 = 0 + 0
c [basicprobe-2-0] 4308 probes remain 9% after last round
c [basicprobe-2-0] removed 0 variables, found 1477 hbrs
c p    3.6   49447   221795       433     349  11937   683   6  5.5 193.1   25
c [cgrclsr-2] limit 100000 penalty 1 = 1 + 0
c [cgrclsr-2] all 49447 free variables schedulable
c [cgrclsr-2] fully completed congruence closure
c [lift-2] limit 250000 with penalty 1 = 1 + 0
c [lift-2] using 49415 probes 100%
c [lift-2] 49393 variables remain 100% (54 retained)
c [cliff-2] limit of 10000000 steps penalty 0 = 0 + 0
c [cliff-2] failed 0, lifted 0
c [unhide-2] limit 1000000 with penalty 0 = 0 + 0
c [unhide-2-2] 0 units, 0 failed, 2616 tauts, 0 hbrs, 178 literals
c u    4.3   49447   221775       433     348  10068   679   6  5.5 193.1   25
c [transred-3] limit 100000 with penalty 0 = 0 + 0
c t    4.3   49447   221771       433     348  10064   679   6  5.5 193.1   25
c [block-2] scheduling all variables this time
c [block-2] scheduled 49447 variables 100%
c [block-2] limit of 10000000 steps penalty 0 = 0 + 0
c [block-2] fully completed blocked clause elimination
c [block-2] transition to [ all 0 rem 0 ] state
c [block-2] eliminated 0 blocked clauses
c [cce-2] 46392 variables 94% will be scheduled this time
c [cce-2] limit of 10000000 steps penalty 0 = 0 + 0
c [cce-2] 45667 variables 92% remain to be tried next time
c [cce-2] transition to [ all 0 rem 1 ] state
c [cce-2] eliminated 441 covered clauses
c E    4.8   49447   221330       433     348  10528   679   6  5.5 193.1   21
c [elim-2] 40970 variables 83% will be scheduled this time
c [elim-2] scheduled 40970 variables 83%
c [elim-2] limit of 5000000 steps penalty 0 = 0 + 0
c [elim-2] 30729 variables 62% remain to be tried next time
c [elim-2] transition to [ all 0 rem 1 ] state
c [elim-2] eliminated 1276 = 3% variables out of 49447
c e    5.7   48171   220769       433     334   6373   679   6  5.5 193.1   21
c [phase-2] phase bias: 32 positive 86%, 5 negative 14%
c [simplification-2] removed 1276 variables 2%
c [simplification-2] limit increments divided by 2
c [simplification-2] arithmetic increase of conflict limit interval by 5000
c [simplification-2] new irredundant limit 2245556
c [simplification-2] new conflict limit 5766
c [simplification-2] simplification penalty reduced to 2
c R    6.0   48171   220769       975     793   6390   739   4  6.1 250.5   25
c -    6.2   48171   220769      1262     502   6403   796   4  5.9 218.7   25
c 
c  seconds         irredundant          redundant clauses agility   height
c          variables clauses conflicts large binary ternary    glue         MB
c 
c R    6.5   48171   220769      2265    1390   6437   866   3  6.8 235.2   25
c -    7.4   48171   220769      4226    1543   6495  1053   4  6.4 218.5   25
c R    7.6   48171   220769      5188    2454   6505  1092   5  7.8 230.5   25
c [simplification-3] limit hit at 5766 conflicts
c [simplification-3] simplification penalty of 2
c [ternres-3] limit 4000000 with penalty 0 = 0 + 0
c [ternres-3] all 48171 free variables schedulable
c [ternres-3] 330 ternary resolvents (3 bin, 327 trn)
c [ternres-3] fully completed ternary resolution
c T    8.0   48171   220769      5766    2935   6532  1484   2  7.6 224.0   26
c [gauss-3] limit 500000 penalty 2 = 2 + 0
c [gauss-3] extracted 258 xors of average arity 3.0
c [gauss-3] connected 774 occurrences of 720 variables (average 1.1)
c [gauss-3] limit 500000 penalty 2 = 2 + 0
c [gauss-3] fully completed
c [gauss-3] exported 0 unary, 0 binary and 0 ternary equations
c G    8.1   48171   220769      5766    2935   6532  1484   2  7.6 224.0   21
c [basicprobe-3] limit 500000 penalty 1 = 1 + 0
c [basicprobe-3-0] 3972 probes remain 8% after last round
c [basicprobe-3-0] removed 0 variables, found 582 hbrs
c p    8.2   48171   220769      5766    2935   7114  1472   2  7.6 224.0   25
c [cgrclsr-3] limit 69303 based on 554425 irredundant literals
c [cgrclsr-3] all 48171 free variables schedulable
c [cgrclsr-3] fully completed congruence closure
c [lift-3] limit 125000 with penalty 2 = 2 + 0
c [lift-3] using 48120 probes 100%
c [lift-3] 48108 variables remain 100% (63 retained)
c [cliff-3] limit of 5000000 steps penalty 1 = 1 + 0
c [cliff-3] failed 0, lifted 0
c [unhide-3] limit 1000000 with penalty 0 = 0 + 0
c [unhide-3-3] 0 units, 0 failed, 1456 tauts, 0 hbrs, 2590 literals
c u    8.7   48171   219350      5766    2904   7325  1460   2  7.6 224.0   25
c [transred-5] limit 611067 with penalty 0 = 0 + 0
c t    8.7   48171   219338      5766    2904   7306  1460   2  7.6 224.0   25
c [block-3] scheduling all variables this time
c [block-3] scheduled 48171 variables 100%
c [block-3] limit of 5000000 steps penalty 1 = 1 + 0
c [block-3] fully completed blocked clause elimination
c [block-3] transition to [ all 0 rem 0 ] state
c [block-3] eliminated 0 blocked clauses
c [cce-3] scheduling all variables this time
c [cce-3] limit of 10000000 steps penalty 0 = 0 + 0
c [cce-3] 44057 variables 91% remain to be tried next time
c [cce-3] transition to [ all 1 rem 1 ] state
c [cce-3] eliminated 382 covered clauses
c E    9.3   48171   218956      5766    2904   7755  1452   2  7.6 224.0   21
c [elim-3] scheduling all variables this time
c [elim-3] scheduled 48171 variables 100%
c [elim-3] limit of 5000000 steps penalty 0 = 0 + 0
c [elim-3] 30302 variables 63% remain to be tried next time
c [elim-3] transition to [ all 1 rem 1 ] state
c [elim-3] eliminated 482 = 1% variables out of 48171
c e   10.2   47689   218529      5766    2886   6798  1451   2  7.6 224.0   21
c [simplification-3] removed 482 variables 1%
c [simplification-3] no reduction of limit increments
c [simplification-3] arithmetic increase of conflict limit interval by 10000
c [simplification-3] new irredundant limit 2245556
c [simplification-3] new conflict limit 21099
c [simplification-3] simplification penalty reduced to 1
c -   11.4   47689   218529      8192    2514   6868  1646   3  7.2 219.3   25
c R   12.5   47689   218529     11647    5763   6917  1787   5  8.9 240.9   27
c -   13.3   47689   218529     13120    3500   6979  1943   3  8.6 236.5   26
c 1   14.9   47689   218529     16902    6929   7079  2171   1  8.2 235.9   26
c 
c  seconds         irredundant          redundant clauses agility   height
c          variables clauses conflicts large binary ternary    glue         MB
c 
c blkd: 3 bces, 4800 removed, 1987633 resolutions, 5493940 steps
c blkd: 4800 blocking literals 1%, 0 pure
c cces: 3 cces, 917 eliminated, 917 ate 100%, 0 abce 0%
c cces: 20174 probed, 0 lifted, 0 failed
c clff: 3 cliffs, 0 lifted, 1 failed
c clff: 13290 decisions, 25019163 steps
c clls: 1 sat, 0 simp, 0 freeze, 0 melt
c clls: 2134376 add, 0 assume,, 0 deref, 0 failed
c clls: 0 cassume, 0 mosat
c coll: 19 gcs, 0 rescored clauses
c cgrs: 3 count, 369309 esteps, 87873 csteps
c cgrs: 0 eqs, 0 units
c cgrs: 0 matched (0 ands 0%, 0 xors 0%, 0 ites 0%)
c cgrs: 0 simplified (0 ands 0%, 0 xors 0%, 0 ites 0%)
c cgrs: 2360 extracted (2016 ands 85%, 344 xors 15%, 0 ites 0%)
c dcps: 3 decompositions, 66416 equivalent 30%
c decs: 328843 decision, 335 random 0.102%
c decs: 73461 flipped 22.339% (in 99 phases)
c elms: 3 elims, 8397 eliminated 4%
c elms: 8397 small 100%, 0 large 0%
c elms: 36975 tried small, 8397 succeeded 23%, 28578 failed 77%
c elms: 0 subsumed, 0 strengthened, 0 blocked
c elms: 483606 copies, 332529 resolutions, 974434 ipos
c elms: 0 subchks, 0 strchks
c frcs: 0 computed, 22.7 - 77.3 average min-cut range
c gaus: 3 extractions, 169121 extracted, 2.0 size, 3 max
c gaus: exported 0 units, 0 binary and 0 ternary equations
c gaus: 0 gc, 7000458 steps, 3500229 extr 50%, 2187471 elim 31%
c glue: 8.2 avg, 2.8 scaled avg
c glue: 0 maxredglue=15 (0%)
c lift: 3 phases, 419 probed (140 level1 33%, 279 level2 67%)
c lift: 0 units, 0 equivalences, 2 implications
c hbrs: 29996 hbrs = 29996 trn 100% + 0 lrg 0%, 23 sub 0%
c lrnd: 16775 clauses, 10115 uips 60%, 28.0 length, 8.2 glue
c ints: 775 luby (107018 steps), 0 inout (0 steps)
c mins: 469620 learned lits, 7% minimized
c move: moved 5717, 917 binary 16%, 4800 ternary 84%
c otfs: str 937 dyn (855 red, 82 irr) 127 drv 14%, 810 rst 86%
c otfs: sub 6 dyn (6 red, 0 irr)
c phas: 2 computed, 10882 set, 1449 pos (13%), 9433 neg (87%)
c prbs: 3 basic, 3099 probed, 2 failed, 0 lifted
c prps: 44093792 props, 106 props/dec
c prps: 79% srch, 21% simp, 0% lkhd
c psns: 1878551 searches, 266123 hits, 14% hit rate
c queu: 61106 new, 22158 del, 120 maximum priority
c queu: 38931 merged, 33629 collected, 6 gcs
c queu: 17712 deprioritized, 23.1 lines on average
c reds: 4 count, 0 reset, 4 acts 100%, 0 exp 0%
c reds: 4 arithmetic 100%, 4 double 100%
c rmbd: 21 removed, 0 red 0%
c rsts: 713 restarts 92%, 61 skipped 8%
c rsts: 123 kept 17.3% average 46.8%
c simp: 3 count (0 ilim 0%, 0 plim 0%, 3 clim 100%)
c trnr: 3 count, 3 bin, 331 trn, 7851403 steps
c tops: 102016 fixed 45%, 0 iterations
c trds: 6 transitive reductions, 47 removed, 0 failed
c trds: 1267 nodes, 1743 edges, 816896 steps
c unhd: 3 count, 3 rounds, 3487058 steps
c unhd: 0 non-trivial sccs of average size 0.0
c unhd: 0 units, 0 bin, 0 trn, 0 lrg
c unhd: 2 failed, 2 stamp, 0 lits, 0 bin, 0 trn, 0 lrg
c unhd: 25805 tauts, 1 bin 0%, 693 trn 3%, 13 lrg 0%
c unhd: 25805 tauts, 25098 stamp 97%, 2655 red 10%
c unhd: 0 hbrs, 0 trn 0%, 0 lrg 0%, 0 red 0%
c unhd: 2892 strd, 0 bin 0%, 2 trn 0%, 2890 lrg 100%, 2892 red 100%
c vars: 47689 remaining 21% and 176829 removed 79% out of 224518
c vars: 102016 fixed 45%, 8397 eliminated 4%, 66416 equivalent 30%
c vsts: 220160135 visits, 81% srch, 19% simp, 0% lkhd
c vsts: 5.1 search visits per propagation 10517.8 per conflict
c wchs: 14459497 pushed, 4951312 enlarged, 31 defrags
c 
c scaledglue  added       reduced       forcing      resolved     conflicts
c 
c all     15110 100      8059 100    183334 100     37122 100      3313 100
c 
c  0          0   0         0   0         0   0         0   0         0   0 
c  1         83   1        39   0      2264   1       156   0         8   0 
c  2       4698  31      2361  29     75457  41      9622  26       637  19 
c  3       6322  42<     3169  39<    89071  49<    18126  49<     1839  56<
c  4       2517  17      1464  18     13419   7      6150  17       603  18 
c  5        796   5       499   6      1871   1      1722   5       127   4 
c  6        337   2       248   3       564   0       612   2        42   1 
c  7        164   1       130   2       306   0       314   1        21   1 
c  8        100   1        76   1       193   0       211   1        18   1 
c  9         33   0        30   0        47   0        57   0         2   0 
c 10         46   0        30   0       121   0       126   0        14   0 
c 11         13   0        12   0        20   0        25   0         2   0 
c 12          1   0         1   0         1   0         1   0         0   0 
c 13          0   0         0   0         0   0         0   0         0   0 
c 14          0   0         0   0         0   0         0   0         0   0 
c 15          0   0         0   0         0   0         0   0         0   0 
c 
c avg             3.1           3.3           2.7           3.1           3.2
c std             1.2           1.4           0.8           1.1           1.1
c 
c 328843 decisions, 16902 conflicts, 1137.0 conflicts/sec
c 44093792 propagations, 3.0 megaprops/sec
c 14.9 seconds, 48.0 MB
c 
c    0.856   6% analysis
c    0.464   3% block
c    0.044   0% bump
c    0.000   0% card
c    1.192   8% cce
c    0.876   6% cliff
c    0.016   0% cutwidth
c    0.312   2% decide
c    0.000   0% force
c    0.844   6% gc
c    0.336   2% cgrclsr
c    0.328   2% decomp
c    0.236   2% defrag
c    2.916  20% elim
c    0.724   5% gauss
c    0.276   2% lift
c    0.132   1% mincls
c    0.048   0% phase
c    0.160   1% probe
c    0.020   0% reduce
c    0.344   2% restart
c    0.128   1% ternres
c    0.052   0% transred
c    0.344   2% unhide
c ==================================
c    0.016   0% preprocessing     0%
c    7.988  54% inprocessing    100%
c ==================================
c    8.004  54% simplifying
c    0.000   0% lookahead
c    6.848  46% search
c ==================================
c   14.865 100% all
c
s SATISFIABLE
